3972982888975729993506,3,1,2,06,8,1,2,013,10,1,2,05,8,1,2,06,7,1,2,09,9,1,2,07,8,1,2,014,12,1,2,08,2,1,2,02,2,1,2,011,12,1,2,014,12,1,2,01,10,1,2,07,5,1,2,013,9,1,2,012,7,1,2,013,9,1,2,015,1,1,2,06,5,1,2,012,6,1,2,014,1,1,2,014,7,1,2,014,2,1,2,015,2,1,2,011,6,1,2,08,15,1,2,05,8,1,2,015,10,1,2,02,2,1,2,012,3,1,2,08,2,1,2,03,12,1,2,010,14,1,2,03,15,1,2,02,13,1,2,010,15,1,2,010,1,1,2,012,8,1,2,012,10,1,2,06,9,1,2,05,13,1,2,014,6,1,2,011,5,1,2,07,1,1,2,07,8,1,2,07,10,1,2,06,15,1,2,013,8,1,2,015,11,1,2,014,7,1,2,0